# Solution for model obj
# Objective value = 44
x#1 0
x#2 0
x#3 0
x#4 0
x#5 0
x#6 0
x#7 0
x#8 0
x#9 0
x#10 0
x#11 0
x#12 0
x#13 1
x#14 0
x#15 0
x#16 0
x#17 0
x#18 0
x#19 0
x#20 1
x#21 0
x#22 0
x#23 0
x#24 0
x#25 0
x#26 0
x#27 0
x#28 0
x#29 1
x#30 0
x#31 0
x#32 0
x#33 0
x#34 1
x#35 0
x#36 0
x#37 0
x#38 1
x#39 0
x#40 1
x#41 0
x#42 1
x#43 0
x#44 0
x#45 0
x#46 1
x#47 1
x#48 0
x#49 0
x#50 0
x#51 0
x#52 0
x#53 0
x#54 0
x#55 0
x#56 0
x#57 0
x#58 0
x#59 0
x#60 0
x#61 0
x#62 0
x#63 0
x#64 0
x#65 1
x#66 0
x#67 1
x#68 0
x#69 0
x#70 0
x#71 0
x#72 1
x#73 0
x#74 0
x#75 1
x#76 0
x#77 0
x#78 0
x#79 0
x#80 0
x#81 1
x#82 1
x#83 0
x#84 1
x#85 0
x#86 0
x#87 0
x#88 0
x#89 0
x#90 0
x#91 0
x#92 0
x#93 1
x#94 1
x#95 0
x#96 0
x#97 1
x#98 0
x#99 0
x#100 1
x#101 0
x#102 1
x#103 0
x#104 0
x#105 1
x#106 0
x#107 0
x#108 1
x#109 0
x#110 0
x#111 0
x#112 0
x#113 0
x#114 0
x#115 0
x#116 0
x#117 1
x#118 0
x#119 1
x#120 1
x#121 0
x#122 0
x#123 1
x#124 0
x#125 0
x#126 0
x#127 1
x#128 0
x#129 1
x#130 0
x#131 0
x#132 1
x#133 0
x#134 0
x#135 0
x#136 0
x#137 0
x#138 1
x#139 0
x#140 0
x#141 1
x#142 0
x#143 0
x#144 0
x#145 0
x#146 1
x#147 0
x#148 0
x#149 1
x#150 1
x#151 1
x#152 0
x#153 0
x#154 0
x#155 0
x#156 1
x#157 0
x#158 0
x#159 0
x#160 0
x#161 0
x#162 0
x#163 0
x#164 0
x#165 0
x#166 1
x#167 0
x#168 0
x#169 0
x#170 1
x#171 0
x#172 0
x#173 0
x#174 0
x#175 0
x#176 0
x#177 0
x#178 0
x#179 0
x#180 1
x#181 0
x#182 0
x#183 0
x#184 0
x#185 0
x#186 1
x#187 0
x#188 0
x#189 0
x#190 1
x#191 0
x#192 0
x#193 1
x#194 0
x#195 1
x#196 0
x#197 0
x#198 0
x#199 0
x#200 0
